db/data/229651241334218194464720941754820544.z3.out
-------------------
2500.174134358
